  &CONTROL
	calculation = 'nscf',
	restart_mode = 'from_scratch',
	verbosity = 'default',
	prefix = 'Na',
	pseudo_dir = '/scratch/gsesti/pseudo',           !../../../../pseudo'
        outdir = '.'
	wf_collect=.true.
        tstress=.true.
	tprnfor=.true.
  /
   &SYSTEM	
	ibrav = 3,
        celldm(1) = 7.991,
	celldm(2) = 7.991,
	celldm(3) = 7.991,
        nat = 1,
	ntyp = 1,
        nbnd = 20,
	ecutwfc = 50.0,
	occupations='smearing', smearing='fd', degauss=0.005,
        force_symmorphic=.true.
   /
    &ELECTRONS
	electron_maxstep = 200,
	mixing_mode = 'plain',
	conv_thr = 1.0d-8 
        diagonalization='davidson'
        diago_thr_init= 5e-6,
        diago_full_acc=.true.
   /
#    &IONS
#       ion_dynamics = 'damp',
#       ion_damping = 0.2,
#       ion_velocities = 'zero',
#       ion_nstepe = 10
#      /
#      &CELL
#       cell_dynamics='bfgs',
#       cell_dofree=ibrav
#      /
ATOMIC_SPECIES
Na  22.9898    Na_ONCV_PBE-1.2.upf
ATOMIC_POSITIONS crystal
  Na    0.000000    0.000000    0.000000
K_POINTS (automatic)
6 6 6 0 0 0
